p cnf 35 36
-7 -10 -12 -14 -15 -16 -18 -19 -20 -21 -22 -24 -25 -28 -29 -30 -31 -32 -33 -35 0
-1 -2 -4 -8 -10 -11 -13 -21 -23 -26 0
-1 -2 -4 -6 -8 -11 -13 -15 -21 -23 -26 -34 0
-1 -2 -3 -4 -6 -8 -9 -11 -13 -26 -27 -33 -34 0
-7 -8 -10 -11 -12 -13 -17 -19 -21 -22 -23 -25 -26 0
-7 -8 -10 -11 -12 -13 -19 -21 -22 -23 -25 -26 -29 0
-1 -2 -3 -4 -8 -9 -10 -11 -13 -23 -26 -27 0
-3 -4 -5 -6 -7 -9 -11 -16 -17 -18 -19 -20 -27 -28 -30 -31 -32 -33 -34 -35 0
-1 -2 -5 -6 -13 -14 -15 -21 -23 -24 -25 -29 -31 -35 0
-1 -2 -3 -5 -6 -13 -14 -15 -21 -24 -25 -28 -29 -30 -31 -32 -33 -35 0
-7 -9 -10 -12 -14 -16 -18 -19 -20 -21 -22 -24 -25 -28 -29 -30 -31 -32 -33 -35 0
-1 -2 -3 -4 -5 -6 -13 -14 -15 -27 -28 -29 -30 -31 -32 -33 -34 -35 0
-7 -9 -10 -11 -12 -16 -17 -18 -19 -20 -22 -24 -25 -27 -28 -30 -31 -32 -33 -35 0
-7 -9 -10 -11 -12 -16 -17 -18 -19 -20 -22 -25 -27 -28 -30 -31 -32 -33 -34 -35 0
-1 -2 -3 -4 -5 -6 -13 -14 -15 -26 -27 -33 -34 -35 0
-1 -2 -3 -4 -6 -8 -11 -13 -15 -26 -27 -33 -34 0
-2 -3 -4 -7 -8 -9 -10 -11 -16 -17 -23 -26 -27 0
-7 -8 -9 -10 -11 -12 -16 -17 -18 -19 -22 -23 -24 -25 -27 -28 -30 -31 0
-3 -4 -6 -7 -9 -11 -12 -16 -17 -18 -19 -20 -27 -28 -30 -31 -32 -33 -34 -35 0
-1 -3 -4 -5 -6 -14 -15 -16 -17 -18 -19 -20 -27 -28 -30 -31 -32 -33 -34 -35 0
-1 -3 -4 -5 -6 -14 -15 -16 -18 -19 -20 -27 -28 -29 -30 -31 -32 -33 -34 -35 0
-7 -8 -10 -12 -13 -14 -19 -21 -22 -23 -24 -25 -29 -31 0
-1 -2 -8 -10 -12 -13 -14 -21 -23 -24 -25 -29 -31 0
-1 -2 -5 -8 -10 -13 -14 -21 -23 -24 -25 -29 -31 0
-2 -4 -7 -8 -10 -11 -13 -17 -21 -22 -23 -26 0
-3 -4 -6 -7 -8 -9 -11 -12 -16 -17 -19 -20 -26 -27 -30 -32 -33 -34 0
-2 -3 -4 -6 -7 -8 -9 -11 -16 -17 -26 -27 -33 -34 0
-1 -5 -6 -13 -14 -15 -18 -19 -20 -21 -22 -23 -24 -25 -29 -31 -32 -35 0
-7 -10 -12 -13 -14 -15 -18 -19 -20 -21 -22 -23 -24 -25 -29 -31 -32 -35 0
-2 -3 -4 -5 -6 -7 -9 -11 -16 -17 -18 -20 -26 -27 -28 -33 -34 -35 0
-1 -2 -3 -4 -5 -6 -14 -15 -16 -17 -18 -20 -26 -27 -28 -33 -34 -35 0
-1 -3 -5 -6 -14 -15 -16 -18 -19 -20 -21 -24 -25 -28 -29 -30 -31 -32 -33 -35 0
-1 -2 -4 -5 -6 -13 -14 -15 -21 -23 -26 -34 -35 0
-1 -2 -4 -5 -8 -10 -13 -14 -21 -23 -24 -26 0
-1 -2 -8 -10 -11 -12 -13 -21 -23 -25 -26 -29 0
-7 -8 -9 -10 -11 -12 -16 -17 -19 -20 -22 -25 -26 -27 -30 -32 -33 -34 0
